(set-logic ALL)
(declare-const input_num_VAR Int)
(assert (not (<= input_num_VAR 0)))
(assert (< 1 (+ (div input_num_VAR 2) 1)))
(assert (= (mod input_num_VAR 1) 0))
(assert (< 2 (+ (div input_num_VAR 2) 1)))
(assert (= (mod input_num_VAR 2) 0))
(assert (< 3 (+ (div input_num_VAR 2) 1)))
(assert (not (= (mod input_num_VAR 3) 0)))
(assert (< 4 (+ (div input_num_VAR 2) 1)))
(assert (not (= (mod input_num_VAR 4) 0)))
(assert (< 5 (+ (div input_num_VAR 2) 1)))
(assert (not (= (mod input_num_VAR 5) 0)))
(assert (< 6 (+ (div input_num_VAR 2) 1)))
(assert (not (= (mod input_num_VAR 6) 0)))
(assert (< 7 (+ (div input_num_VAR 2) 1)))
(assert (not (= (mod input_num_VAR 7) 0)))
(assert (< 8 (+ (div input_num_VAR 2) 1)))
(assert (not (= (mod input_num_VAR 8) 0)))
(assert (< 9 (+ (div input_num_VAR 2) 1)))
(assert (not (= (mod input_num_VAR 9) 0)))
(assert (< 10 (+ (div input_num_VAR 2) 1)))
(assert (not (= (mod input_num_VAR 10) 0)))
(assert (< 11 (+ (div input_num_VAR 2) 1)))
(assert (not (= (mod input_num_VAR 11) 0)))
(assert (< 12 (+ (div input_num_VAR 2) 1)))
(assert (not (= (mod input_num_VAR 12) 0)))
(assert (< 13 (+ (div input_num_VAR 2) 1)))
(assert (= (mod input_num_VAR 13) 0))
(assert (< 14 (+ (div input_num_VAR 2) 1)))
(assert (not (= (mod input_num_VAR 14) 0)))
(assert (< 15 (+ (div input_num_VAR 2) 1)))
(assert (not (= (mod input_num_VAR 15) 0)))
(assert (< 16 (+ (div input_num_VAR 2) 1)))
(assert (not (= (mod input_num_VAR 16) 0)))
(assert (< 17 (+ (div input_num_VAR 2) 1)))
(assert (not (= (mod input_num_VAR 17) 0)))
(assert (< 18 (+ (div input_num_VAR 2) 1)))
(assert (not (= (mod input_num_VAR 18) 0)))
(assert (< 19 (+ (div input_num_VAR 2) 1)))
(assert (not (= (mod input_num_VAR 19) 0)))
(assert (< 20 (+ (div input_num_VAR 2) 1)))
(assert (not (= (mod input_num_VAR 20) 0)))
(assert (< 21 (+ (div input_num_VAR 2) 1)))
(assert (not (= (mod input_num_VAR 21) 0)))
(assert (< 22 (+ (div input_num_VAR 2) 1)))
(assert (not (= (mod input_num_VAR 22) 0)))
(assert (< 23 (+ (div input_num_VAR 2) 1)))
(assert (not (= (mod input_num_VAR 23) 0)))
(assert (< 24 (+ (div input_num_VAR 2) 1)))
(assert (not (= (mod input_num_VAR 24) 0)))
(assert (< 25 (+ (div input_num_VAR 2) 1)))
(assert (not (= (mod input_num_VAR 25) 0)))
(assert (< 26 (+ (div input_num_VAR 2) 1)))
(assert (= (mod input_num_VAR 26) 0))
(assert (< 27 (+ (div input_num_VAR 2) 1)))
(assert (not (= (mod input_num_VAR 27) 0)))
(assert (< 28 (+ (div input_num_VAR 2) 1)))
(assert (not (= (mod input_num_VAR 28) 0)))
(assert (< 29 (+ (div input_num_VAR 2) 1)))
(assert (not (= (mod input_num_VAR 29) 0)))
(assert (< 30 (+ (div input_num_VAR 2) 1)))
(assert (not (= (mod input_num_VAR 30) 0)))
(assert (< 31 (+ (div input_num_VAR 2) 1)))
(assert (not (= (mod input_num_VAR 31) 0)))
(assert (< 32 (+ (div input_num_VAR 2) 1)))
(assert (not (= (mod input_num_VAR 32) 0)))
(assert (< 33 (+ (div input_num_VAR 2) 1)))
(assert (not (= (mod input_num_VAR 33) 0)))
(assert (< 34 (+ (div input_num_VAR 2) 1)))
(assert (not (= (mod input_num_VAR 34) 0)))
(assert (< 35 (+ (div input_num_VAR 2) 1)))
(assert (not (= (mod input_num_VAR 35) 0)))
(assert (< 36 (+ (div input_num_VAR 2) 1)))
(assert (not (= (mod input_num_VAR 36) 0)))
(assert (< 37 (+ (div input_num_VAR 2) 1)))
(assert (not (= (mod input_num_VAR 37) 0)))
(assert (< 38 (+ (div input_num_VAR 2) 1)))
(assert (not (= (mod input_num_VAR 38) 0)))
(assert (< 39 (+ (div input_num_VAR 2) 1)))
(assert (not (= (mod input_num_VAR 39) 0)))
(assert (< 40 (+ (div input_num_VAR 2) 1)))
(assert (not (= (mod input_num_VAR 40) 0)))
(assert (< 41 (+ (div input_num_VAR 2) 1)))
(assert (not (= (mod input_num_VAR 41) 0)))
(assert (< 42 (+ (div input_num_VAR 2) 1)))
(assert (not (= (mod input_num_VAR 42) 0)))
(assert (< 43 (+ (div input_num_VAR 2) 1)))
(assert (not (= (mod input_num_VAR 43) 0)))
(assert (< 44 (+ (div input_num_VAR 2) 1)))
(assert (not (= (mod input_num_VAR 44) 0)))
(assert (< 45 (+ (div input_num_VAR 2) 1)))
(assert (not (= (mod input_num_VAR 45) 0)))
(assert (< 46 (+ (div input_num_VAR 2) 1)))
(assert (not (= (mod input_num_VAR 46) 0)))
(assert (< 47 (+ (div input_num_VAR 2) 1)))
(assert (not (= (mod input_num_VAR 47) 0)))
(assert (< 48 (+ (div input_num_VAR 2) 1)))
(assert (not (= (mod input_num_VAR 48) 0)))
(assert (< 49 (+ (div input_num_VAR 2) 1)))
(assert (not (= (mod input_num_VAR 49) 0)))
(assert (< 50 (+ (div input_num_VAR 2) 1)))
(assert (not (= (mod input_num_VAR 50) 0)))
(assert (< 51 (+ (div input_num_VAR 2) 1)))
(assert (not (= (mod input_num_VAR 51) 0)))
(assert (< 52 (+ (div input_num_VAR 2) 1)))
(assert (not (= (mod input_num_VAR 52) 0)))
(assert (< 53 (+ (div input_num_VAR 2) 1)))
(assert (not (= (mod input_num_VAR 53) 0)))
(assert (< 54 (+ (div input_num_VAR 2) 1)))
(assert (not (= (mod input_num_VAR 54) 0)))
(assert (< 55 (+ (div input_num_VAR 2) 1)))
(assert (not (= (mod input_num_VAR 55) 0)))
(assert (< 56 (+ (div input_num_VAR 2) 1)))
(assert (not (= (mod input_num_VAR 56) 0)))
(assert (< 57 (+ (div input_num_VAR 2) 1)))
(assert (not (= (mod input_num_VAR 57) 0)))
(assert (< 58 (+ (div input_num_VAR 2) 1)))
(assert (not (= (mod input_num_VAR 58) 0)))
(assert (< 59 (+ (div input_num_VAR 2) 1)))
(assert (not (= (mod input_num_VAR 59) 0)))
(assert (< 60 (+ (div input_num_VAR 2) 1)))
(assert (not (= (mod input_num_VAR 60) 0)))
(assert (< 61 (+ (div input_num_VAR 2) 1)))
(assert (not (= (mod input_num_VAR 61) 0)))
(assert (< 62 (+ (div input_num_VAR 2) 1)))
(assert (not (= (mod input_num_VAR 62) 0)))
(assert (< 63 (+ (div input_num_VAR 2) 1)))
(assert (not (= (mod input_num_VAR 63) 0)))
(assert (< 64 (+ (div input_num_VAR 2) 1)))
(assert (not (= (mod input_num_VAR 64) 0)))
(assert (< 65 (+ (div input_num_VAR 2) 1)))
(assert (not (= (mod input_num_VAR 65) 0)))
(assert (< 66 (+ (div input_num_VAR 2) 1)))
(assert (not (= (mod input_num_VAR 66) 0)))
(assert (< 67 (+ (div input_num_VAR 2) 1)))
(assert (not (= (mod input_num_VAR 67) 0)))
(assert (< 68 (+ (div input_num_VAR 2) 1)))
(assert (not (= (mod input_num_VAR 68) 0)))
(assert (< 69 (+ (div input_num_VAR 2) 1)))
(assert (not (= (mod input_num_VAR 69) 0)))
(assert (< 70 (+ (div input_num_VAR 2) 1)))
(assert (not (= (mod input_num_VAR 70) 0)))
(assert (< 71 (+ (div input_num_VAR 2) 1)))
(assert (not (= (mod input_num_VAR 71) 0)))
(assert (< 72 (+ (div input_num_VAR 2) 1)))
(assert (not (= (mod input_num_VAR 72) 0)))
(assert (< 73 (+ (div input_num_VAR 2) 1)))
(assert (not (= (mod input_num_VAR 73) 0)))
(assert (< 74 (+ (div input_num_VAR 2) 1)))
(assert (not (= (mod input_num_VAR 74) 0)))
(assert (< 75 (+ (div input_num_VAR 2) 1)))
(assert (not (= (mod input_num_VAR 75) 0)))
(assert (< 76 (+ (div input_num_VAR 2) 1)))
(assert (not (= (mod input_num_VAR 76) 0)))
(assert (< 77 (+ (div input_num_VAR 2) 1)))
(assert (not (= (mod input_num_VAR 77) 0)))
(assert (< 78 (+ (div input_num_VAR 2) 1)))
(assert (not (= (mod input_num_VAR 78) 0)))
(assert (< 79 (+ (div input_num_VAR 2) 1)))
(assert (not (= (mod input_num_VAR 79) 0)))
(assert (< 80 (+ (div input_num_VAR 2) 1)))
(assert (not (= (mod input_num_VAR 80) 0)))
(assert (< 81 (+ (div input_num_VAR 2) 1)))
(assert (not (= (mod input_num_VAR 81) 0)))
(assert (< 82 (+ (div input_num_VAR 2) 1)))
(assert (not (= (mod input_num_VAR 82) 0)))
(assert (< 83 (+ (div input_num_VAR 2) 1)))
(assert (not (= (mod input_num_VAR 83) 0)))
(assert (< 84 (+ (div input_num_VAR 2) 1)))
(assert (not (= (mod input_num_VAR 84) 0)))
(assert (< 85 (+ (div input_num_VAR 2) 1)))
(assert (not (= (mod input_num_VAR 85) 0)))
(assert (< 86 (+ (div input_num_VAR 2) 1)))
(assert (not (= (mod input_num_VAR 86) 0)))
(assert (< 87 (+ (div input_num_VAR 2) 1)))
(assert (not (= (mod input_num_VAR 87) 0)))
(assert (< 88 (+ (div input_num_VAR 2) 1)))
(assert (not (= (mod input_num_VAR 88) 0)))
(assert (< 89 (+ (div input_num_VAR 2) 1)))
(assert (not (= (mod input_num_VAR 89) 0)))
(assert (< 90 (+ (div input_num_VAR 2) 1)))
(assert (not (= (mod input_num_VAR 90) 0)))
(assert (< 91 (+ (div input_num_VAR 2) 1)))
(assert (not (= (mod input_num_VAR 91) 0)))
(assert (< 92 (+ (div input_num_VAR 2) 1)))
(assert (not (= (mod input_num_VAR 92) 0)))
(assert (< 93 (+ (div input_num_VAR 2) 1)))
(assert (not (= (mod input_num_VAR 93) 0)))
(assert (< 94 (+ (div input_num_VAR 2) 1)))
(assert (not (= (mod input_num_VAR 94) 0)))
(assert (< 95 (+ (div input_num_VAR 2) 1)))
(assert (not (= (mod input_num_VAR 95) 0)))
(assert (< 96 (+ (div input_num_VAR 2) 1)))
(assert (not (= (mod input_num_VAR 96) 0)))
(assert (< 97 (+ (div input_num_VAR 2) 1)))
(assert (not (= (mod input_num_VAR 97) 0)))
(assert (< 98 (+ (div input_num_VAR 2) 1)))
(assert (not (= (mod input_num_VAR 98) 0)))
(assert (< 99 (+ (div input_num_VAR 2) 1)))
(assert (not (= (mod input_num_VAR 99) 0)))
(assert (< 100 (+ (div input_num_VAR 2) 1)))
(assert (not (= (mod input_num_VAR 100) 0)))
(assert (< 101 (+ (div input_num_VAR 2) 1)))
(assert (= (mod input_num_VAR 101) 0))
(assert (< 102 (+ (div input_num_VAR 2) 1)))
(assert (not (= (mod input_num_VAR 102) 0)))
(assert (< 103 (+ (div input_num_VAR 2) 1)))
(assert (not (= (mod input_num_VAR 103) 0)))
(assert (< 104 (+ (div input_num_VAR 2) 1)))
(assert (not (= (mod input_num_VAR 104) 0)))
(assert (< 105 (+ (div input_num_VAR 2) 1)))
(assert (not (= (mod input_num_VAR 105) 0)))
(assert (< 106 (+ (div input_num_VAR 2) 1)))
(assert (not (= (mod input_num_VAR 106) 0)))
(assert (< 107 (+ (div input_num_VAR 2) 1)))
(assert (= (mod input_num_VAR 107) 0))
(check-sat)
(get-value (input_num_VAR))
